$comment

$end

$molecule
0 1
6 -1.73906 3.58846 -1.30468
6 -0.741776 3.28843 -2.23496
6 -1.96277 2.73749 -0.219172
6 -1.18754 1.58343 -0.063056
6 0.035097 2.13524 -2.08167
6 -0.187159 1.28164 -0.995432
1 -2.33756 4.48085 -1.42656
1 -2.73647 2.97415 0.498829
1 -0.574431 3.95177 -3.07253
1 0.807562 1.90409 -2.80343
1 0.415352 0.389307 -0.878497
1 -1.3638 0.926616 0.779158
$end

$rem

$end
